\ This file has been generated by DOcplex
\ ENCODING=ISO-8859-1
\Problem name: {self.PROBLEM.name} LEADER SOTA problem

Maximize
 obj: V
Subject To
 c1: V - 0.070000000000 a0_0 - 0.120000000000 a0_1 - 0.370000000000 a0_2
     - 0.070000000000 a0_3 <= 0
 c2: V - 0.020000000000 a0_0 - 0.070000000000 a0_1 - 0.070000000000 a0_2
     - 0.020000000000 a0_3 <= 0
 c3: V - 0.020000000000 a0_0 - 0.070000000000 a0_1 - 0.070000000000 a0_2
     - 0.020000000000 a0_3 <= 0
 c4: V - 0.070000000000 a0_0 - 0.370000000000 a0_1 - 0.120000000000 a0_2
     - 0.070000000000 a0_3 <= 0
 c5: V <= 0
 c6: a0_0 + a0_1 + a0_2 + a0_3 + a0_4 = 1

Bounds
       a0_0 <= 1
       a0_1 <= 1
       a0_2 <= 1
       a0_3 <= 1
       a0_4 <= 1
       V Free
End
